Solving original (integer) problem with strategy gdp.bigm...
--- Job model.gms Start 02/14/26 18:31:29 52.2.0 d8e408be LEX-LEG x86 64bit/Linux
--- Applying:
    /package/gams/52.2/gmsprmun.txt
--- GAMS Parameters defined
    Input /local/scratch/a/sgusev/repos/k_means/data/gams_gurobi_gdp.bigm/no_mode/2026-02-14_18-31-28/original/model.gms
    Output /local/scratch/a/sgusev/repos/k_means/data/gams_gurobi_gdp.bigm/no_mode/2026-02-14_18-31-28/original/output.lst
    ScrDir /local/scratch/a/sgusev/repos/k_means/data/gams_gurobi_gdp.bigm/no_mode/2026-02-14_18-31-28/original/225a/
    SysDir /package/gams/52.2/
    CurDir /local/scratch/a/sgusev/repos/k_means/data/gams_gurobi_gdp.bigm/no_mode/2026-02-14_18-31-28/original/
    LogOption 3
    AppendLog 1
Licensee: David Bernal / SECQUOIA Research Group         G251008+0003Ac-GEN
          Purdue University, Davidson School of Chemical EngineeringDCE4838
          225a/gamslice.dat
          5a82958a-fbca-4a23
          node:66820903 mem:995 cores:48 ipport:54845 v:2                  
          Evaluation license: Not for commercial or production use
          The time-limited license stops working on : Jun 30, 2027
System information: 48 physical cores and 995 Gb physical memory detected
GAMS 52.2.0   Copyright (C) 1987-2025 GAMS Development. All rights reserved
--- Starting compilation
--- model.gms(261) 2 Mb
--- $echo File /local/scratch/a/sgusev/repos/k_means/data/gams_gurobi_gdp.bigm/no_mode/2026-02-14_18-31-28/original/gurobi.opt
--- model.gms(458) 2 Mb
--- Starting execution: elapsed 0:00:00.006
--- model.gms(270) 3 Mb
--- Generating MINLP model GAMS_MODEL
--- model.gms(274) 5 Mb
---   59 rows  72 columns  326 non-zeroes
---   748 nl-code  176 nl-non-zeroes
---   44 discrete-columns
--- Range statistics (absolute non-zero finite values)
--- RHS       [min, max] : [ 1.000E+00, 1.134E+01] - Zero values observed as well
--- Bound     [min, max] : [ 1.000E+00, 8.800E+01] - Zero values observed as well
--- Matrix    [min, max] : [ 1.018E-02, 1.134E+01]
--- model.gms(274) 3 Mb
--- Executing GUROBI (Solvelink=5): elapsed 0:00:00.009
Reading parameter(s) from "/local/scratch/a/sgusev/repos/k_means/data/gams_gurobi_gdp.bigm/no_mode/2026-02-14_18-31-28/original/gurobi.opt"
>>  NonConvex 2
>>  Threads 1
>>  MIPGap 1e-06
>>  MIPGapAbs 1e-10
>>  FeasibilityTol 1e-06
>>  OptimalityTol 1e-06
>>  IntFeasTol 1e-05
Finished reading from "/local/scratch/a/sgusev/repos/k_means/data/gams_gurobi_gdp.bigm/no_mode/2026-02-14_18-31-28/original/gurobi.opt"

... GRB_LICENSE_FILE = /local/scratch/a/sgusev/gurobi.lic

    Gurobi           52.2.0 d8e408be Dec 8, 2025           LEG x86 64bit/Linux    

... GAMS/Gurobi Link license.
... GMO Q Extraction (ThreePass): 0.00s

    Gurobi Optimizer version 13.0.0 build v13.0.0rc1 (linux64 - "Oracle Linux Server 9.7")
    
    CPU model: AMD EPYC 7643 48-Core Processor, instruction set [SSE2|AVX|AVX2]
    Thread count: 48 physical cores, 96 logical processors, using up to 1 threads
    
    Non-default parameters:
    TimeLimit  300
    MIPGap  1e-06
    LogToConsole  0
    NonConvex  2
    Threads  1
    
    Optimize a model with 14 rows, 71 columns and 50 nonzeros (Min)
    Model fingerprint: 0xdf1df061
    Model has 11 linear objective coefficients
    Model has 44 quadratic constraints
    Variable types: 27 continuous, 44 integer (0 binary)
    Coefficient statistics:
      Matrix range     [1e+00, 1e+00]
      QMatrix range    [1e+00, 1e+00]
      QLMatrix range   [1e-02, 1e+01]
      Objective range  [1e+00, 1e+00]
      Bounds range     [1e+00, 9e+01]
      RHS range        [1e+00, 1e+00]
      QRHS range       [6e+00, 9e+00]
    Presolve added 44 rows and 4 columns
    Presolve time: 0.00s
    Presolved: 58 rows, 75 columns, 358 nonzeros
    Presolved model has 4 quadratic constraint(s)
    Variable types: 31 continuous, 44 integer (44 binary)
    
    Root relaxation: objective 0.000000e+00, 23 iterations, 0.00 seconds (0.00 work units)
    
        Nodes    |    Current Node    |     Objective Bounds      |     Work
     Expl Unexpl |  Obj  Depth IntInf | Incumbent    BestBd   Gap | It/Node Time
    
    H    0     0                       5.8061955    0.00000   100%     -    0s
    *    0     0               0       5.8061955    0.00000   100%     -    0s
         0     0    0.00000    0   16    5.80620    0.00000   100%     -    0s
    H    0     0                       5.2795520    0.00000   100%     -    0s
    H    0     0                       4.3591189    0.00000   100%     -    0s
    *    0     0               0       4.3591189    0.00000   100%     -    0s
         0     0    0.00000    0    8    4.35912    0.00000   100%     -    0s
         0     0    0.00000    0   20    4.35912    0.00000   100%     -    0s
         0     0    0.00000    0   20    4.35912    0.00000   100%     -    0s
         0     0    0.00000    0   18    4.35912    0.00000   100%     -    0s
         0     0    0.00000    0    -    4.35912    0.00000   100%     -    0s
         0     0    0.00000    0   21    4.35912    0.00000   100%     -    0s
         0     0    0.00000    0   29    4.35912    0.00000   100%     -    0s
         0     0    0.00000    0    4    4.35912    0.00000   100%     -    0s
         0     0    0.00000    0    8    4.35912    0.00000   100%     -    0s
         0     0    0.00000    0   10    4.35912    0.00000   100%     -    0s
         0     0    0.00000    0    6    4.35912    0.00000   100%     -    0s
         0     0    0.00000    0   10    4.35912    0.00000   100%     -    0s
         0     0    0.00000    0    2    4.35912    0.00000   100%     -    0s
         0     0    0.00000    0   10    4.35912    0.00000   100%     -    0s
         0     0    0.00000    0    -    4.35912    0.00000   100%     -    0s
         0     0    0.00000    0   18    4.35912    0.00000   100%     -    0s
         0     0    0.00000    0   16    4.35912    0.00000   100%     -    0s
         0     0    0.00000    0    2    4.35912    0.00000   100%     -    0s
         0     0    0.00000    0   12    4.35912    0.00000   100%     -    0s
         0     0    0.00000    0    8    4.35912    0.00000   100%     -    0s
         0     0    0.00000    0   10    4.35912    0.00000   100%     -    0s
         0     0    0.00000    0    8    4.35912    0.00000   100%     -    0s
         0     0    0.00000    0   10    4.35912    0.00000   100%     -    0s
         0     0    0.00000    0    8    4.35912    0.00000   100%     -    0s
         0     0    0.00000    0   16    4.35912    0.00000   100%     -    0s
         0     0    0.00000    0    4    4.35912    0.00000   100%     -    0s
         0     0    0.00000    0   14    4.35912    0.00000   100%     -    0s
         0     0    0.00000    0    4    4.35912    0.00000   100%     -    0s
         0     0    0.00000    0   14    4.35912    0.00000   100%     -    0s
         0     0    0.00000    0    6    4.35912    0.00000   100%     -    0s
         0     0    0.00000    0   10    4.35912    0.00000   100%     -    0s
         0     0    0.00000    0   10    4.35912    0.00000   100%     -    0s
         0     0    0.00000    0   18    4.35912    0.00000   100%     -    0s
         0     0    0.00000    0    8    4.35912    0.00000   100%     -    0s
         0     0    0.00000    0    8    4.35912    0.00000   100%     -    0s
         0     0    0.00000    0   14    4.35912    0.00000   100%     -    0s
         0     0    0.00000    0    6    4.35912    0.00000   100%     -    0s
         0     0    0.00000    0   16    4.35912    0.00000   100%     -    0s
         0     0    0.00000    0    6    4.35912    0.00000   100%     -    0s
         0     0    0.00000    0   14    4.35912    0.00000   100%     -    0s
         0     0    0.00000    0    2    4.35912    0.00000   100%     -    0s
         0     0    0.00000    0   12    4.35912    0.00000   100%     -    0s
         0     0    0.00000    0    6    4.35912    0.00000   100%     -    0s
         0     0    0.00000    0   14    4.35912    0.00000   100%     -    0s
         0     0    0.00000    0    4    4.35912    0.00000   100%     -    0s
         0     0    0.00000    0    8    4.35912    0.00000   100%     -    0s
         0     0    0.00000    0   12    4.35912    0.00000   100%     -    0s
         0     0    0.00000    0    8    4.35912    0.00000   100%     -    0s
         0     0    0.00000    0   14    4.35912    0.00000   100%     -    0s
         0     0    0.00000    0    2    4.35912    0.00000   100%     -    0s
         0     0    0.00000    0   14    4.35912    0.00000   100%     -    0s
         0     0    0.00000    0    6    4.35912    0.00000   100%     -    0s
         0     0    0.00000    0   14    4.35912    0.00000   100%     -    0s
         0     0    0.00000    0    8    4.35912    0.00000   100%     -    0s
         0     0    0.00000    0    8    4.35912    0.00000   100%     -    0s
         0     0    0.00000    0   10    4.35912    0.00000   100%     -    0s
         0     0    0.00000    0   10    4.35912    0.00000   100%     -    0s
         0     0    0.00000    0   12    4.35912    0.00000   100%     -    0s
         0     0    0.00000    0    2    4.35912    0.00000   100%     -    0s
         0     0    0.00000    0   14    4.35912    0.00000   100%     -    0s
         0     0    0.00000    0    8    4.35912    0.00000   100%     -    0s
         0     0    0.00000    0   16    4.35912    0.00000   100%     -    0s
         0     0    0.00000    0    4    4.35912    0.00000   100%     -    0s
         0     0    0.00000    0   10    4.35912    0.00000   100%     -    0s
         0     0    0.00000    0    6    4.35912    0.00000   100%     -    0s
         0     0    0.00000    0   18    4.35912    0.00000   100%     -    0s
         0     0    0.00000    0    4    4.35912    0.00000   100%     -    0s
         0     0    0.00000    0   14    4.35912    0.00000   100%     -    0s
         0     0    0.00000    0    6    4.35912    0.00000   100%     -    0s
         0     0    0.00000    0   16    4.35912    0.00000   100%     -    0s
         0     0    0.00000    0    6    4.35912    0.00000   100%     -    0s
         0     0    0.00000    0   10    4.35912    0.00000   100%     -    0s
         0     0    0.00000    0   10    4.35912    0.00000   100%     -    0s
         0     0    0.00000    0   14    4.35912    0.00000   100%     -    0s
         0     0    0.00000    0    6    4.35912    0.00000   100%     -    0s
         0     0    0.00000    0   14    4.35912    0.00000   100%     -    0s
         0     0    0.00000    0    6    4.35912    0.00000   100%     -    0s
         0     0    0.00000    0   14    4.35912    0.00000   100%     -    0s
         0     0    0.00000    0    4    4.35912    0.00000   100%     -    0s
         0     0    0.00000    0   18    4.35912    0.00000   100%     -    0s
         0     0    0.00000    0    6    4.35912    0.00000   100%     -    0s
         0     0    0.00000    0   16    4.35912    0.00000   100%     -    0s
         0     0    0.00000    0    6    4.35912    0.00000   100%     -    0s
         0     0    0.00000    0   14    4.35912    0.00000   100%     -    0s
         0     0    0.00000    0    6    4.35912    0.00000   100%     -    0s
         0     0    0.00000    0   16    4.35912    0.00000   100%     -    0s
         0     0    0.00000    0    2    4.35912    0.00000   100%     -    0s
         0     0    0.00000    0   10    4.35912    0.00000   100%     -    0s
         0     0    0.00000    0    4    4.35912    0.00000   100%     -    0s
         0     0    0.00000    0   12    4.35912    0.00000   100%     -    0s
         0     0    0.00000    0    4    4.35912    0.00000   100%     -    0s
         0     0    0.00000    0   12    4.35912    0.00000   100%     -    0s
         0     0    0.00000    0   12    4.35912    0.00000   100%     -    0s
         0     0    0.00000    0   14    4.35912    0.00000   100%     -    0s
         0     0    0.00000    0    8    4.35912    0.00000   100%     -    0s
         0     0    0.00000    0   20    4.35912    0.00000   100%     -    0s
         0     0    0.00000    0    4    4.35912    0.00000   100%     -    0s
         0     0    0.00000    0   10    4.35912    0.00000   100%     -    0s
         0     0    0.00000    0    8    4.35912    0.00000   100%     -    0s
         0     0    0.00000    0   14    4.35912    0.00000   100%     -    0s
         0     0    0.00000    0    4    4.35912    0.00000   100%     -    0s
         0     0    0.00000    0   12    4.35912    0.00000   100%     -    0s
         0     0    0.00000    0    8    4.35912    0.00000   100%     -    0s
         0     0    0.00000    0   12    4.35912    0.00000   100%     -    0s
         0     0    0.00000    0    4    4.35912    0.00000   100%     -    0s
         0     0    0.00000    0   12    4.35912    0.00000   100%     -    0s
         0     0    0.00000    0    8    4.35912    0.00000   100%     -    0s
         0     0    0.00000    0   20    4.35912    0.00000   100%     -    0s
         0     0    0.00000    0    4    4.35912    0.00000   100%     -    0s
         0     0    0.00000    0   10    4.35912    0.00000   100%     -    0s
         0     0    0.00000    0   10    4.35912    0.00000   100%     -    0s
         0     0    0.00000    0   14    4.35912    0.00000   100%     -    0s
         0     0    0.00000    0    4    4.35912    0.00000   100%     -    0s
         0     0    0.00000    0   18    4.35912    0.00000   100%     -    0s
         0     0    0.00000    0    6    4.35912    0.00000   100%     -    0s
         0     0    0.00000    0   10    4.35912    0.00000   100%     -    0s
         0     0    0.00000    0    6    4.35912    0.00000   100%     -    0s
         0     0    0.00000    0   14    4.35912    0.00000   100%     -    0s
         0     0    0.00000    0    2    4.35912    0.00000   100%     -    0s
         0     0    0.00000    0   12    4.35912    0.00000   100%     -    0s
         0     0    0.00000    0    6    4.35912    0.00000   100%     -    0s
         0     0    0.00000    0   14    4.35912    0.00000   100%     -    0s
         0     0    0.00000    0    8    4.35912    0.00000   100%     -    0s
         0     0    0.00000    0   18    4.35912    0.00000   100%     -    0s
         0     0    0.00000    0    4    4.35912    0.00000   100%     -    0s
         0     0    0.00000    0   10    4.35912    0.00000   100%     -    0s
         0     0    0.00000    0   10    4.35912    0.00000   100%     -    0s
         0     0    0.00000    0   14    4.35912    0.00000   100%     -    0s
         0     0    0.00000    0    6    4.35912    0.00000   100%     -    0s
         0     0    0.00000    0   14    4.35912    0.00000   100%     -    0s
         0     0    0.00000    0    2    4.35912    0.00000   100%     -    0s
         0     0    0.00000    0   12    4.35912    0.00000   100%     -    0s
         0     0    0.00000    0    2    4.35912    0.00000   100%     -    0s
         0     0    0.00000    0   18    4.35912    0.00000   100%     -    0s
         0     0    0.00000    0    6    4.35912    0.00000   100%     -    0s
         0     0    0.00000    0    8    4.35912    0.00000   100%     -    0s
         0     0    0.00000    0   14    4.35912    0.00000   100%     -    0s
         0     0    0.00000    0    2    4.35912    0.00000   100%     -    0s
         0     0    0.00000    0    6    4.35912    0.00000   100%     -    0s
         0     0    0.00000    0   12    4.35912    0.00000   100%     -    0s
         0     0    0.00000    0    6    4.35912    0.00000   100%     -    0s
         0     0    0.00000    0   16    4.35912    0.00000   100%     -    0s
         0     0    0.00000    0    -    4.35912    0.00000   100%     -    0s
         0     0    0.00000    0   12    4.35912    0.00000   100%     -    0s
         0     0    0.00000    0   12    4.35912    0.00000   100%     -    0s
         0     0    0.00000    0   10    4.35912    0.00000   100%     -    0s
         0     0    0.00000    0   18    4.35912    0.00000   100%     -    0s
         0     0    0.00000    0    4    4.35912    0.00000   100%     -    0s
         0     0    0.00000    0   18    4.35912    0.00000   100%     -    0s
         0     0    0.00000    0    4    4.35912    0.00000   100%     -    0s
         0     0    0.00000    0   12    4.35912    0.00000   100%     -    0s
         0     0    0.00000    0   12    4.35912    0.00000   100%     -    0s
         0     0    0.00000    0   16    4.35912    0.00000   100%     -    0s
         0     0    0.00000    0   10    4.35912    0.00000   100%     -    0s
         0     0    0.00000    0   12    4.35912    0.00000   100%     -    0s
         0     0    0.00000    0    8    4.35912    0.00000   100%     -    0s
         0     0    0.00000    0   18    4.35912    0.00000   100%     -    0s
         0     0    0.00000    0    6    4.35912    0.00000   100%     -    0s
         0     0    0.00000    0   10    4.35912    0.00000   100%     -    0s
         0     0    0.00000    0    6    4.35912    0.00000   100%     -    0s
         0     0    0.00000    0   16    4.35912    0.00000   100%     -    0s
         0     0    0.00000    0    6    4.35912    0.00000   100%     -    0s
         0     0    0.00000    0   14    4.35912    0.00000   100%     -    0s
         0     0    0.00000    0    8    4.35912    0.00000   100%     -    0s
         0     0    0.00000    0   12    4.35912    0.00000   100%     -    0s
         0     0    0.00000    0    2    4.35912    0.00000   100%     -    0s
         0     0    0.00000    0   12    4.35912    0.00000   100%     -    0s
         0     0    0.00000    0   10    4.35912    0.00000   100%     -    0s
         0     0    0.00000    0   14    4.35912    0.00000   100%     -    0s
         0     0    0.00000    0    6    4.35912    0.00000   100%     -    0s
         0     0    0.00000    0   14    4.35912    0.00000   100%     -    0s
         0     0    0.00000    0    4    4.35912    0.00000   100%     -    0s
         0     0    0.00000    0   14    4.35912    0.00000   100%     -    0s
         0     0    0.00000    0    8    4.35912    0.00000   100%     -    0s
         0     0    0.00000    0   16    4.35912    0.00000   100%     -    0s
         0     0    0.00000    0    6    4.35912    0.00000   100%     -    0s
         0     0    0.00000    0   16    4.35912    0.00000   100%     -    0s
         0     0    0.00000    0    6    4.35912    0.00000   100%     -    0s
         0     0    0.00000    0   16    4.35912    0.00000   100%     -    0s
         0     0    0.00000    0   10    4.35912    0.00000   100%     -    0s
         0     0    0.00000    0   14    4.35912    0.00000   100%     -    0s
         0     0    0.00000    0    2    4.35912    0.00000   100%     -    0s
         0     0    0.00000    0   12    4.35912    0.00000   100%     -    0s
         0     0    0.00000    0    8    4.35912    0.00000   100%     -    0s
         0     0    0.00000    0   11    4.35912    0.00000   100%     -    0s
         0     0    0.00000    0    6    4.35912    0.00000   100%     -    0s
         0     0    0.00000    0   18    4.35912    0.00000   100%     -    0s
         0     0    0.00000    0    4    4.35912    0.00000   100%     -    0s
         0     0    0.00000    0   12    4.35912    0.00000   100%     -    0s
         0     0    0.00000    0    4    4.35912    0.00000   100%     -    0s
         0     0    0.00000    0   10    4.35912    0.00000   100%     -    0s
         0     0    0.00000    0   10    4.35912    0.00000   100%     -    0s
         0     0    0.00000    0    8    4.35912    0.00000   100%     -    0s
         0     0    0.00000    0   10    4.35912    0.00000   100%     -    0s
         0     0    0.00000    0   10    4.35912    0.00000   100%     -    0s
         0     0    0.00000    0   18    4.35912    0.00000   100%     -    0s
         0     0    0.00000    0    4    4.35912    0.00000   100%     -    0s
         0     2    0.00000    0    6    4.35912    0.00000   100%     -    0s
    H   14    14                       4.0639764    0.00000   100%  14.1    0s
    H  209   152                       4.0639764    0.00000   100%   8.4    0s
    H  314   192                       4.0639764    0.00000   100%   8.6    0s
    H  342   209                       4.0639763    0.00000   100%   8.7    0s
    H  352   205                       4.0639763    0.00000   100%   8.5    0s
    H  454   257                       4.0639763    0.00000   100%  35.4    1s
    H  457   245                       4.0639763    0.00000   100%  35.3    1s
    H  458   232                       4.0639763    0.00000   100%  35.2    1s
    H  459   218                       4.0639763    0.00000   100%  35.2    1s
    H  464   210                       4.0639763    0.00000   100%  34.9    1s
    H  815   300                       3.4989486    0.00000   100%  24.0    1s
    H  815   289                       3.4989486    0.00000   100%  24.0    1s
    H  816   278                       3.4989486    0.00000   100%  24.0    1s
    H  817   269                       3.4989486    0.00000   100%  24.0    1s
    H  819   260                       3.4989486    0.00000   100%  23.9    1s
    H  820   252                       3.4989486    0.00000   100%  23.9    1s
    H  821   244                       3.4989486    0.00000   100%  23.9    1s
     19601  4000    2.13972   22    8    3.49895    1.51105  56.8%   8.3    5s
    H24251  4121                       3.4801311    1.77437  49.0%   8.2    5s
    H31265  3653                       3.3945025    2.20241  35.1%   8.2    7s
    H31733  3614                       3.3945025    2.22889  34.3%   8.2    7s
    H32107  3562                       3.3945025    2.25691  33.5%   8.2    7s
    H34781  2988                       3.3937082    2.45749  27.6%   8.2    8s
    H35051  2898                       3.3937081    2.48554  26.8%   8.2    8s
    H35163  2863                       3.3937081    2.49454  26.5%   8.2    8s
    H35216  2845                       3.3937081    2.50107  26.3%   8.2    8s
    H35481  2759                       3.3937081    2.52955  25.5%   8.2    8s
    H35873  2609                       3.3937081    2.57959  24.0%   8.2    8s
     40077   614     cutoff   32         3.39371    3.15238  7.11%   8.3   10s
    
    Cutting planes:
      Flow cover: 2
      Inf proof: 2
    
    Explored 40847 nodes (346028 simplex iterations) in 10.24 seconds (11.16 work units)
    Thread count was 1 (of 96 available processors)
    
    Solution count 9: 3.39371 3.39371 3.3945 ... 5.8062
    No other solutions better than 3.39371
    
    Optimal solution found (tolerance 1.00e-06)
    Best objective 3.393707663016e+00, best bound 3.393707663016e+00, gap 0.0000%
    
    User-callback calls 40976, time in user-callback 0.00 sec

... Solving fixed model...

    Gurobi Optimizer version 13.0.0 build v13.0.0rc1 (linux64 - "Oracle Linux Server 9.7")
    
    CPU model: AMD EPYC 7643 48-Core Processor, instruction set [SSE2|AVX|AVX2]
    Thread count: 48 physical cores, 96 logical processors, using up to 1 threads
    
    Non-default parameters:
    TimeLimit  300
    MIPGap  1e-06
    LogToConsole  0
    NonConvex  2
    Threads  1
    
    Optimize a model with 14 rows, 71 columns and 50 nonzeros (Min)
    Model fingerprint: 0xc3463da1
    Model has 11 linear objective coefficients
    Model has 44 quadratic constraints
    Coefficient statistics:
      Matrix range     [1e+00, 1e+00]
      QMatrix range    [1e+00, 1e+00]
      QLMatrix range   [1e-02, 1e+01]
      Objective range  [1e+00, 1e+00]
      Bounds range     [1e+00, 9e+01]
      RHS range        [1e+00, 1e+00]
      QRHS range       [6e+00, 9e+00]
    Presolve removed 11 rows and 47 columns
    Presolve time: 0.00s
    Presolved: 63 rows, 74 columns, 157 nonzeros
    Presolved model has 11 second-order cone constraints
    Ordering time: 0.00s
    
    Barrier statistics:
     AA' NZ     : 6.380e+02
     Factor NZ  : 8.040e+02
     Factor Ops : 1.495e+04 (less than 1 second per iteration)
     Threads    : 1
    
                      Objective                Residual
    Iter       Primal          Dual         Primal    Dual     Compl     Time
       0   4.13561011e+02 -3.22014600e+02  7.86e+00 4.07e+00  9.99e+00     0s
       1   3.57741315e+01 -5.89816487e+01  8.64e-06 4.48e-06  8.61e-01     0s
       2   4.79692896e+00 -7.93600880e+00  2.07e-07 6.31e-07  1.16e-01     0s
       3   4.38513287e+00  1.60082155e+00  3.56e-10 8.16e-08  2.53e-02     0s
       4   3.44472790e+00  3.30680346e+00  9.10e-15 2.65e-09  1.25e-03     0s
       5   3.39828942e+00  3.38772400e+00  1.24e-13 1.73e-10  9.60e-05     0s
       6   3.39374756e+00  3.39349498e+00  4.87e-12 3.93e-12  2.30e-06     0s
       7   3.39370797e+00  3.39370612e+00  6.71e-11 1.23e-13  1.68e-08     0s
    
    Barrier solved model in 7 iterations and 0.00 seconds (0.00 work units)
    Optimal objective 3.39370797e+00
    
    
    User-callback calls 0, time in user-callback 0.00 sec
    Warning: to get QCP duals, please set parameter QCPDual to 1

--- Reading solution for model GAMS_MODEL
***
*** Solver did not provide marginals for model GAMS_MODEL
***
--- Executing after solve: elapsed 0:00:10.291
--- model.gms(277) 3 Mb
--- model.gms(458) 5 Mb
--- Putfile results /local/scratch/a/sgusev/repos/k_means/data/gams_gurobi_gdp.bigm/no_mode/2026-02-14_18-31-28/original/results.dat
--- Putfile statresults /local/scratch/a/sgusev/repos/k_means/data/gams_gurobi_gdp.bigm/no_mode/2026-02-14_18-31-28/original/resultsstat.dat
*** Status: Normal completion
--- Job model.gms Stop 02/14/26 18:31:39 elapsed 0:00:10.292
Original problem solved. Time taken: 10.826316118240356 seconds
Original objective value: 3.393707969094066
